c --- [ banner ] -------------------------------------------------------------
c 
c CaDiCaL SAT Solver
c Copyright (c) 2016-2025
c A. Biere, M. Fleury, N. Froleyks, K. Fazekas, F. Pollitt, T. Faller
c JKU Linz, University of Freiburg, TU Wien
c 
c Version 3.0.0 7b99c07f0bcab5824a5a3ce62c7066554017f641
c Apple clang version 21.0.0 (clang-2100.0.123.102) -Wall -Wextra -O3 -DNDEBUG -DNCLOSEFROM
c Thu Apr 23 22:35:47 PDT 2026 Darwin dada-mun-26.local 25.4.0 arm64
c 
c --- [ limit ] --------------------------------------------------------------
c 
c setting time limit to 180 seconds real time (due to '-t 180')
c 
c --- [ proof tracing ] ------------------------------------------------------
c 
c opening file to write 'scratch/atail-force/unique4-aligned-p5-terminal/core-audit/aligned_p5_compact.drat'
c writing binary proof trace to 'scratch/atail-force/unique4-aligned-p5-terminal/core-audit/aligned_p5_compact.drat'
c 
c --- [ parsing input ] ------------------------------------------------------
c 
c reading DIMACS file from 'scratch/atail-force/unique4-aligned-p5-terminal/core-audit/aligned_p5_compact.cnf'
c opening file to read 'scratch/atail-force/unique4-aligned-p5-terminal/core-audit/aligned_p5_compact.cnf'
c found 'p cnf 15192 27781' header
c parsed 27781 clauses in 0.01 seconds process time
c 
c --- [ options ] ------------------------------------------------------------
c 
c all options are set to their default value
c 
c --- [ solving ] ------------------------------------------------------------
c 
c time measured in process time since initialization
c 
c  seconds  reduction conflicts       size tier2      variables
c         MB    restarts   redundant    glue  trail       remaining
c          level     rate       size/glu tier1  irredundant
c 
c *  0.01  0  0 0   0  0    0    0 0.0 0 0 2 6  0% 27707 611  4%
c (  0.01  0  0 0   0  0    0    0 0.0 0 0 2 6  0% 27707 611  4%
c .  0.01  0  0 0   0  0    0    0 0.0 0 0 2 6  0% 24994 611  4%
c c  0.01  0  0 0   0  0    0    0 0.0 0 0 2 6  0% 23972 611  4%
c d  0.01  0  0 0   0  0    0    0 0.0 0 0 2 6  0% 23839 583  4%
c 2  0.01  0  0 0   0  0    0    0 0.0 0 0 2 6  0% 23818 583  4%
c f  0.05  0  0 0   0  0    0    0 0.0 0 0 2 6  0% 17840 1280  8%
c e  0.05  0  0 0   0  0    0    0 0.0 0 0 2 6  0% 17567 1155  8%
c s  0.05  0  0 0   0  0    0    0 0.0 0 0 2 6  0% 17552 1155  8%
c P  0.05  0  0 0   0  0    0    0 0.0 0 0 2 6  0% 17552 1155  8%
c )  0.05  0  0 0   0  0    0    0 0.0 0 0 2 6  0% 17552 1155  8%
c {  0.05  0  0 0   0  0    0    0 0.0 0 0 2 6  0% 17552 1155  8%
c -  0.05  0 8631 1  19 214  300  184 1.7 11 6 2 6 58% 17552 1155  8%
c i  0.06  0 4508 1  38 144  675  439 1.8 11 6 2 6 32% 17552 1138  7%
c -  0.06  0 4164 2  38 133  733  368 1.8 11 6 2 6 29% 17379 1138  7%
c }  0.06  0 3021 2  40 97 1002  600 2.0 12 6 2 6 22% 17379 1138  7%
c [  0.06  0  0 2  40  0 1002  600 0.0 0 0 2 6  0% 17379 1138  7%
c O  0.06  0 13 2  40 14 1003  601 2.0 16 8 2 6  4% 17379 1138  7%
c -  0.06  0 16 3  40  1 1410  648 2.1 16 8 2 6  4% 17379 1138  7%
c ]  0.07  0 14 3  40  1 1917 1082 2.2 15 7 2 6  4% 17379 1138  7%
c 
c  seconds    reduction conflicts       size  tier2      variables
c         MB      restarts   redundant     glue  trail        remaining
c           level      rate       size/glue tier1  irredundant
c 
c {  0.07  0 3021 3  40 97 1917 1082 2.0 12 6 2 6 22% 17379 1138  7%
c 2  0.07  0 2855 3  50 92 1973 1131 2.0 12 6 2 6 21% 17367 1138  7%
c d  0.07  0 2855 3  50 92 1973 1131 2.0 12 6 2 6 21% 17351 1130  7%
c t  0.07  0 2855 3  50 92 1973 1131 2.0 12 6 2 6 21% 17312 1130  7%
c -  0.08  0 2078 4  82 68 2348 1067 1.9 12 6 2 6 45% 17312 1130  7%
c O  0.08  0 1418 4 122 47 3004 1640 2.0 13 6 2 6 42% 17312 1130  7%
c -  0.09  0 1114 5 164 38 3559 1621 2.0 13 7 2 6 43% 17312 1130  7%
c k  0.10  0 835 5 205 29 4475 2403 2.0 13 7 2 6 44% 17312 1129  7%
c f  0.10  0 835 5 205 29 4475 2403 2.0 13 7 2 6 44% 17303 1136  7%
c }  0.11  0 768 5 240 27 4785 2676 2.0 13 7 2 6 43% 17303 1136  7%
c [  0.11  0 14 5 240  1 4785 2676 2.2 15 7 2 6 50% 17303 1136  7%
c -  0.11  0 18 6 241  1 5052 2128 2.0 16 8 4 7 49% 17303 1136  7%
c I  0.12  0 25 6 241  1 6006 2971 1.8 18 10 4 7 49% 17303 1136  7%
c -  0.13  0 24 7 242  1 6828 2493 1.8 17 10 4 7 47% 17303 1136  7%
c ]  0.14  0 23 7 242  1 7169 2764 1.8 17 10 4 7 47% 17304 1136  7%
c {  0.14  0 768 7 242 27 7169 2764 2.0 13 7 2 6 43% 17304 1136  7%
c i  0.14  0 723 7 265 25 7407 2979 2.0 13 7 2 6 43% 17304 1132  7%
c -  0.16  0 532 8 344 19 8896 3109 2.1 14 7 2 6 44% 16926 1132  7%
c 2  0.17  0 459 8 401 17 9776 3924 2.1 14 7 3 5 44% 16926 1132  7%
c f  0.17  0 459 8 401 17 9776 3923 2.1 14 7 3 5 43% 16888 1157  8%
c 
c  seconds   reductions conflicts       size  tier2      variables
c         MB     restarts    redundant     glue  trail        remaining
c           level     rate        size/glue tier1  irredundant
c 
c #  0.18  0 443 8 420 16 10008 4137 2.1 14 7 3 5 43% 16888 1157  8%
c s  0.20  0 387 8 585 15 11010 5030 2.1 14 7 3 5 43% 13231 1157  8%
c t  0.20  0 387 8 585 15 11010 5030 2.1 14 7 3 5 43% 13227 1157  8%
c e  0.20  0 387 8 585 15 11010 4877 2.1 14 7 3 5 43% 12619 992  7%
c s  0.20  0 387 8 585 15 11010 4873 2.1 14 7 3 5 43% 12425 992  7%
c -  0.21  0 376 9 625 15 11253 3676 2.1 14 7 3 5 42% 12425 992  7%
c }  0.21  0 371 9 628 15 11357 3772 2.0 14 7 3 5 42% 12425 992  7%
c [  0.21  0 23 9 628  1 11357 3772 1.8 17 10 4 7 54% 12425 992  7%
c u  0.24  0 20 9 629  1 12560 4760 1.9 17 9 4 7 50% 12425 992  7%
c v  0.24  0 20 9 629  1 12560 4755 1.9 17 9 4 7 50% 12425 992  7%
c w  0.24  0 20 9 629  1 12560 4754 1.9 17 9 4 7 50% 12425 992  7%
c x  0.24  0 20 9 629  1 12560 4754 1.9 17 9 4 7 50% 12411 992  7%
c t  0.24  0 20 9 629  1 12560 4754 1.9 17 9 4 7 50% 12141 992  7%
c f  0.24  0 20 9 629  1 12560 4754 1.9 17 9 4 7 49% 12119 1010  7%
c -  0.26  0 20 10 630  1 13905 4033 1.9 17 9 3 6 49% 12119 1010  7%
c B  0.28  0 19 10 631  1 15009 4992 1.9 17 9 3 6 49% 12119 1010  7%
c f  0.29  0 19 10 631  1 15425 5336 1.9 17 9 3 6 48% 12120 1011  7%
c ]  0.29  0 19 10 631  1 15685 5539 1.9 17 9 3 6 48% 12120 1011  7%
c {  0.29  0 371 10 631 15 15685 5539 2.0 14 7 3 5 41% 12120 1011  7%
c -  0.31  0 325 11 818 13 16852 4601 2.0 14 7 3 5 43% 12120 1011  7%
c 
c  seconds   reductions   conflicts       size  tier2      variables
c         MB      restarts     redundant     glue  trail        remaining
c           level       rate        size/glue tier1  irredundant
c 
c f  0.34  0 280 11 1003 12 18365 6007 2.0 15 7 3 5 43% 12109 1020  7%
c -  0.37  0 243 12 1292 11 20098 5544 2.0 15 7 3 5 43% 12109 1020  7%
c B  0.38  0 227 12 1368 11 21010 6388 2.0 15 7 3 5 43% 12109 1020  7%
c }  0.39  0 225 12 1394 10 21128 6484 2.0 15 7 3 5 43% 12109 1020  7%
c [  0.39  0 19 12 1394  1 21128 6484 1.9 17 9 3 6 48% 12109 1020  7%
c u  0.39  0 19 12 1394  1 21375 6669 1.9 17 9 3 6 48% 12109 1020  7%
c v  0.40  0 19 12 1394  1 21375 6661 1.9 17 9 3 6 48% 12109 1020  7%
c w  0.40  0 19 12 1394  1 21375 6661 1.9 17 9 3 6 48% 12109 1020  7%
c x  0.40  0 19 12 1394  1 21375 6661 1.9 17 9 3 6 48% 12099 1020  7%
c t  0.40  0 19 12 1394  1 21375 6661 1.9 17 9 3 6 48% 11909 1020  7%
c f  0.40  0 19 12 1394  1 21375 6661 1.9 17 9 3 6 47% 11904 1024  7%
c -  0.44  0 19 13 1395  1 23642 6135 1.8 17 9 3 5 46% 11904 1024  7%
c f  0.46  0 18 13 1395  1 24452 6857 1.8 17 9 3 5 46% 11893 1030  7%
c e  0.48  0 18 13 1395  1 25598 7834 1.9 17 9 3 5 46% 11846 1000  7%
c ^  0.48  0 18 13 1395  1 25598 7834 1.9 17 9 3 5 46% 11846 1000  7%
c ]  0.52  0 17 13 1397  1 27476 9258 1.8 17 9 3 5 44% 11846 1000  7%
c {  0.52  0 225 13 1397 10 27476 9258 2.0 15 7 3 5 43% 11846 1000  7%
c -  0.52  0 225 14 1401 10 27485 6567 2.0 15 7 3 5 43% 11846 1000  7%
c 2  0.52  0 224 14 1424 10 27590 6655 2.0 15 8 3 5 43% 11846 1000  7%
c u  0.53  0 224 14 1424 10 27590 6627 2.0 15 8 3 5 43% 11848 1000  7%
c 
c  seconds   reductions   conflicts       size  tier2      variables
c         MB      restarts     redundant     glue  trail        remaining
c           level       rate        size/glue tier1  irredundant
c 
c v  0.53  0 224 14 1424 10 27590 6618 2.0 15 8 3 5 43% 11848 1000  7%
c w  0.53  0 224 14 1424 10 27590 6618 2.0 15 8 3 5 43% 11848 1000  7%
c x  0.53  0 224 14 1424 10 27590 6618 2.0 15 8 3 5 43% 11844 1000  7%
c t  0.53  0 224 14 1424 10 27590 6618 2.0 15 8 3 5 43% 11841 1000  7%
c f  0.53  0 224 14 1424 10 27590 6618 2.0 15 8 3 5 43% 11835 1002  7%
c W  0.55  0 217 14 1451 10 28012 7023 2.0 15 8 3 5 43% 11835 1002  7%
c -  0.62  0 174 15 1821  9 31630 7655 2.0 15 8 3 5 42% 11835 1002  7%
c p  0.62  0 174 15 1821  9 31630 7671 2.0 15 8 3 5 42% 11835 1002  7%
c f  0.62  0 174 15 1821  9 31630 7661 2.0 15 8 3 5 42% 11833 1007  7%
c }  0.69  0 145 15 2090  8 35284 10950 2.0 16 8 3 5 41% 11833 1007  7%
c [  0.69  0 17 15 2090  1 35284 10950 1.8 17 9 3 5 44% 11833 1007  7%
c W  0.71  0 17 15 2090  1 36015 11581 1.8 17 9 3 5 44% 11833 1007  7%
c -  0.71  0 17 16 2091  1 36077 8801 1.8 17 9 3 5 44% 11833 1007  7%
c p  0.71  0 17 16 2091  1 36077 8819 1.8 17 9 3 5 44% 11833 1006  7%
c u  0.72  0 17 16 2091  1 36077 8751 1.8 17 9 3 5 44% 11833 1006  7%
c v  0.72  0 17 16 2091  1 36077 8728 1.8 17 9 3 5 44% 11833 1006  7%
c w  0.72  0 17 16 2091  1 36077 8728 1.8 17 9 3 5 44% 11833 1006  7%
c x  0.72  0 17 16 2091  1 36077 8727 1.8 17 9 3 5 44% 11818 1006  7%
c t  0.72  0 17 16 2091  1 36077 8723 1.8 17 9 3 5 44% 11723 1006  7%
c f  0.72  0 17 16 2091  1 36077 8723 1.8 17 9 3 5 44% 11719 1008  7%
c 
c  seconds  reductions   conflicts       size   tier2      variables
c         MB     restarts     redundant     glue   trail        remaining
c          level       rate        size/glue  tier1  irredundant
c 
c -  0.83  0 17 17 2094  1 40828 9171 1.8 18 10 3 5 43% 11717 1008  7%
c u  0.83  0 17 17 2094  1 40828 9137 1.8 18 10 3 5 43% 11717 1008  7%
c v  0.83  0 17 17 2094  1 40828 9130 1.8 18 10 3 5 43% 11717 1008  7%
c w  0.83  0 17 17 2094  1 40828 9130 1.8 18 10 3 5 43% 11717 1008  7%
c x  0.83  0 17 17 2094  1 40828 9130 1.8 18 10 3 5 43% 11710 1008  7%
c t  0.83  0 17 17 2094  1 40828 9130 1.8 18 10 3 5 43% 11703 1008  7%
c f  0.83  0 17 17 2094  1 40828 9130 1.8 18 10 3 5 43% 11699 1010  7%
c ]  0.87  0 17 17 2095  1 42507 10591 1.8 18 10 3 5 43% 11699 1010  7%
c {  0.87  0 145 17 2095  8 42507 10591 2.0 16 8 3 5 41% 11699 1010  7%
c F  0.91  0 129 17 2183  7 45019 12589 2.0 15 8 3 5 40% 11699 1010  7%
c -  0.94  0 125 18 2361  7 45882 10004 2.0 15 8 3 5 40% 11699 1010  7%
c p  0.94  0 125 18 2361  7 45882 10007 2.0 15 8 3 5 40% 11699 1010  7%
c u  0.95  0 125 18 2361  7 45882 9958 2.0 15 8 3 5 40% 11699 1010  7%
c v  0.95  0 125 18 2361  7 45882 9952 2.0 15 8 3 5 40% 11699 1010  7%
c w  0.95  0 125 18 2361  7 45882 9952 2.0 15 8 3 5 40% 11699 1010  7%
c x  0.95  0 125 18 2361  7 45882 9952 2.0 15 8 3 5 40% 11684 1010  7%
c t  0.95  0 125 18 2361  7 45882 9952 2.0 15 8 3 5 40% 11673 1010  7%
c f  0.95  0 125 18 2361  7 45882 9952 2.0 15 8 3 5 40% 11671 1011  7%
c e  0.98  0 119 18 2409  7 46996 10551 2.0 15 8 3 5 39% 11252 885  6%
c ^  0.98  0 119 18 2409  7 46996 10551 2.0 15 8 3 5 39% 11252 885  6%
c 
c  seconds   reductions   conflicts        size  tier2      variables
c         MB      restarts      redundant     glue  trail       remaining
c           level       rate         size/glue tier1  irredundant
c 
c -  1.06  0 102 19 2465  6 51238 11246 2.0 15 7 3 5 35% 11252 885  6%
c p  1.06  0 102 19 2465  6 51238 11251 2.0 15 7 3 5 35% 11252 885  6%
c t  1.06  0 102 19 2465  6 51238 11251 2.0 15 7 3 5 35% 11250 885  6%
c f  1.06  0 102 19 2465  6 51238 11251 2.0 15 7 3 5 35% 11220 894  6%
c i  1.07  0 101 19 2465  6 51456 11351 2.0 15 7 3 5 35% 11220 893  6%
c }  1.10  0 95 19 2658  6 53347 13055 2.0 15 7 3 5 37% 11220 893  6%
c [  1.10  0 17 19 2658  1 53347 13055 1.8 18 10 3 5 50% 11220 893  6%
c O  1.14  0 17 19 2658  1 55022 14425 1.8 18 10 3 5 49% 11220 893  6%
c -  1.18  0 17 20 2658  1 56899 9590 1.8 18 10 3 5 49% 11141 893  6%
c p  1.18  0 17 20 2658  1 56899 9614 1.8 18 10 3 5 49% 11141 891  6%
c u  1.18  0 17 20 2658  1 56899 9446 1.8 18 10 3 5 49% 11141 891  6%
c v  1.18  0 17 20 2658  1 56899 9420 1.8 18 10 3 5 49% 11141 891  6%
c w  1.18  0 17 20 2658  1 56899 9420 1.8 18 10 3 5 49% 11141 891  6%
c x  1.18  0 17 20 2658  1 56899 9420 1.8 18 10 3 5 49% 11092 891  6%
c t  1.19  0 17 20 2658  1 56899 9420 1.8 18 10 3 5 49% 11055 891  6%
c -  1.32  0 17 21 2659  1 62865 10404 1.8 18 10 3 5 48% 11050 891  6%
c p  1.32  0 17 21 2659  1 62865 10407 1.8 18 10 3 5 48% 11050 891  6%
c u  1.32  0 17 21 2659  1 62865 10358 1.8 18 10 3 5 48% 11050 891  6%
c v  1.32  0 17 21 2659  1 62865 10355 1.8 18 10 3 5 48% 11050 891  6%
c x  1.32  0 17 21 2659  1 62865 10355 1.8 18 10 3 5 48% 11048 891  6%
c 
c  seconds  reductions   conflicts        size   tier2      variables
c         MB     restarts      redundant     glue   trail       remaining
c          level       rate         size/glue  tier1  irredundant
c 
c t  1.32  0 17 21 2659  1 62865 10355 1.8 18 10 3 5 48% 11042 891  6%
c ]  1.34  0 17 21 2659  1 63816 11020 1.8 18 10 3 5 47% 11042 891  6%
c {  1.34  0 95 21 2659  6 63816 11020 2.0 15 7 3 5 37% 11042 891  6%
c B  1.39  0 89 21 2948  5 66023 12893 2.0 15 7 3 5 37% 11042 891  6%
c -  1.46  0 81 22 3110  5 69135 11746 2.0 15 7 3 5 37% 11042 891  6%
c p  1.46  0 81 22 3110  5 69135 11752 2.0 15 7 3 5 37% 11042 891  6%
c k  1.46  0 81 22 3110  5 69135 11752 2.0 15 7 3 5 37% 11042 889  6%
c u  1.46  0 81 22 3110  5 69135 11650 2.0 15 7 3 5 37% 11042 889  6%
c v  1.46  0 81 22 3110  5 69135 11642 2.0 15 7 3 5 37% 11042 889  6%
c x  1.46  0 81 22 3110  5 69135 11641 2.0 15 7 3 5 37% 11007 889  6%
c t  1.46  0 81 22 3110  5 69135 11641 2.0 15 7 3 5 37% 11004 889  6%
c i  1.57  0 71 22 3245  4 74395 15187 2.0 15 7 2 3 37% 11004 888  6%
c -  1.60  0 69 23 3471  4 75709 7171 2.0 15 7 2 3 37% 10829 888  6%
c p  1.60  0 69 23 3471  4 75709 7194 2.0 15 7 2 3 37% 10829 888  6%
c u  1.61  0 69 23 3471  4 75709 7094 2.0 15 7 2 3 37% 10829 888  6%
c v  1.61  0 69 23 3471  4 75709 7080 2.0 15 7 2 3 37% 10829 888  6%
c x  1.61  0 69 23 3471  4 75709 7080 2.0 15 7 2 3 37% 10799 888  6%
c t  1.61  0 69 23 3471  4 75709 7080 2.0 15 7 2 3 37% 10779 888  6%
c f  1.61  0 69 23 3471  4 75709 7080 2.0 15 7 2 3 37% 10764 892  6%
c e  1.63  0 68 23 3577  4 76344 7341 2.0 15 7 2 3 37% 10491 778  5%
c 
c  seconds  reductions   conflicts       size  tier2      variables
c         MB     restarts     redundant     glue  trail       remaining
c          level       rate        size/glue tier1  irredundant
c 
c ^  1.63  0 68 23 3577  4 76344 7341 2.0 15 7 2 3 37% 10491 778  5%
c }  1.65  0 66 23 3651  4 77608 8381 2.0 15 7 2 3 44% 10491 778  5%
c [  1.65  0 17 23 3651  1 77608 8381 1.8 18 10 3 5 54% 10491 778  5%
c B  1.66  0 16 23 3651  1 78024 8672 1.8 18 10 3 5 54% 10491 778  5%
c -  1.75  0 16 24 3654  1 82587 7988 1.8 18 10 3 5 53% 10491 778  5%
c p  1.75  0 16 24 3654  1 82587 7988 1.8 18 10 3 5 53% 10491 778  5%
c u  1.77  0 16 24 3654  1 82587 7887 1.8 18 10 3 5 53% 10491 778  5%
c v  1.77  0 16 24 3654  1 82587 7875 1.8 18 10 3 5 53% 10491 778  5%
c w  1.77  0 16 24 3654  1 82587 7875 1.8 18 10 3 5 53% 10491 778  5%
c x  1.77  0 16 24 3654  1 82587 7875 1.8 18 10 3 5 53% 10479 778  5%
c t  1.77  0 16 24 3654  1 82587 7873 1.8 18 10 3 5 53% 10471 778  5%
c f  1.77  0 16 24 3654  1 82587 7873 1.8 18 10 3 5 52% 10413 789  5%
c -  1.93  0 16 25 3658  1 89772 8468 1.9 19 10 3 5 51% 10413 789  5%
c p  1.93  0 16 25 3658  1 89772 8481 1.9 19 10 3 5 51% 10413 789  5%
c u  1.93  0 16 25 3658  1 89772 8407 1.9 19 10 3 5 51% 10413 789  5%
c v  1.93  0 16 25 3658  1 89772 8389 1.9 19 10 3 5 51% 10413 789  5%
c x  1.93  0 16 25 3658  1 89772 8389 1.9 19 10 3 5 51% 10392 789  5%
c t  1.93  0 16 25 3658  1 89772 8389 1.9 19 10 3 5 51% 10382 789  5%
c f  1.94  0 16 25 3658  1 89772 8389 1.9 19 10 3 5 51% 10367 792  5%
c W  2.02  0 16 25 3658  1 91026 9393 1.9 19 10 3 5 51% 10367 792  5%
c 
c  seconds  reductions   conflicts        size   tier2      variables
c         MB     restarts      redundant     glue   trail       remaining
c          level       rate         size/glue  tier1  irredundant
c 
c ]  2.04  0 16 25 3659  1 92312 10503 1.9 19 10 3 5 50% 10367 792  5%
c {  2.04  0 66 25 3659  4 92312 10503 2.0 15 7 2 3 43% 10367 792  5%
c -  2.15  0 60 26 4172  4 97265 9250 2.0 15 7 2 3 43% 10367 792  5%
c p  2.15  0 60 26 4172  4 97265 9259 2.0 15 7 2 3 43% 10367 792  5%
c u  2.16  0 60 26 4172  4 97265 9153 2.0 15 7 2 3 43% 10367 792  5%
c v  2.16  0 60 26 4172  4 97265 9128 2.0 15 7 2 3 43% 10367 792  5%
c x  2.16  0 60 26 4172  4 97265 9128 2.0 15 7 2 3 43% 10334 792  5%
c t  2.16  0 60 26 4172  4 97265 9128 2.0 15 7 2 3 43% 10321 792  5%
c W  2.33  0 52 26 4718  4 105028 15386 2.0 15 7 2 3 42% 10321 792  5%
c -  2.33  0 52 27 4718  4 105061 10224 2.0 15 7 2 3 42% 10321 792  5%
c p  2.34  0 52 27 4718  4 105061 10236 2.0 15 7 2 3 42% 10321 792  5%
c u  2.34  0 52 27 4718  4 105061 10147 2.0 15 7 2 3 42% 10321 792  5%
c v  2.34  0 52 27 4718  4 105061 10124 2.0 15 7 2 3 42% 10321 792  5%
c x  2.34  0 52 27 4718  4 105061 10122 2.0 15 7 2 3 42% 10276 792  5%
c t  2.34  0 52 27 4718  4 105061 10121 2.0 15 7 2 3 42% 10239 792  5%
c }  2.43  0 49 27 5314  4 108446 13121 2.0 15 7 2 3 42% 10239 792  5%
c [  2.43  0 16 27 5314  1 108446 13121 1.9 19 10 3 5 50% 10239 792  5%
c -  2.54  0 15 28 5317  1 113165 10926 1.9 18 10 3 5 49% 10239 792  5%
c p  2.54  0 15 28 5317  1 113165 10938 1.9 18 10 3 5 49% 10239 792  5%
c u  2.54  0 15 28 5317  1 113165 10853 1.9 18 10 3 5 49% 10239 792  5%
c 
c  seconds  reductions   conflicts         size   tier2      variables
c         MB     restarts       redundant     glue   trail       remaining
c          level       rate          size/glue  tier1  irredundant
c 
c v  2.54  0 15 28 5317  1 113165 10828 1.9 18 10 3 5 49% 10239 792  5%
c w  2.54  0 15 28 5317  1 113165 10828 1.9 18 10 3 5 49% 10239 792  5%
c x  2.54  0 15 28 5317  1 113165 10826 1.9 18 10 3 5 49% 10216 792  5%
c t  2.54  0 15 28 5317  1 113165 10825 1.9 18 10 3 5 49% 10213 792  5%
c t  2.56  0 15 28 5318  1 113879 11359 1.9 18 10 3 5 49% 10211 792  5%
c e  2.57  0 15 28 5318  1 113879 11260 1.9 18 10 3 5 49% 10077 719  5%
c ^  2.57  0 15 28 5318  1 113879 11260 1.9 18 10 3 5 49% 10077 719  5%
c i  2.68  0 15 28 5320  1 119149 15038 1.9 18 9 3 5 48% 10077 718  5%
c I  2.71  0 15 28 5320  1 120030 15806 1.9 18 9 3 5 48% 10077 718  5%
c -  2.74  0 14 29 5321  1 121575 9459 1.9 18 9 3 5 48% 9969 718  5%
c p  2.74  0 14 29 5321  1 121575 9467 1.9 18 9 3 5 48% 9969 718  5%
c u  2.75  0 14 29 5321  1 121575 9316 1.9 18 9 3 5 48% 9969 718  5%
c v  2.75  0 14 29 5321  1 121575 9229 1.9 18 9 3 5 48% 9969 718  5%
c w  2.75  0 14 29 5321  1 121575 9229 1.9 18 9 3 5 48% 9969 718  5%
c x  2.75  0 14 29 5321  1 121575 9228 1.9 18 9 3 5 48% 9948 718  5%
c t  2.75  0 14 29 5321  1 121575 9228 1.9 18 9 3 5 48% 9934 718  5%
c ]  2.82  0 14 29 5321  1 124522 11796 1.9 18 9 3 5 47% 9934 718  5%
c {  2.82  0 49 29 5321  4 124522 11796 2.0 15 7 2 3 42% 9934 718  5%
c -  2.95  0 45 30 5771  4 130292 10939 2.0 15 7 2 3 41% 9934 718  5%
c p  2.95  0 45 30 5771  4 130292 10955 2.0 15 7 2 3 41% 9934 718  5%
c 
c  seconds  reductions   conflicts         size  tier2     variables
c         MB     restarts       redundant     glue  trail      remaining
c          level       rate          size/glue tier1 irredundant
c 
c u  2.96  0 45 30 5771  4 130292 10872 2.0 15 7 2 3 41% 9934 718  5%
c v  2.96  0 45 30 5771  4 130292 10818 2.0 15 7 2 3 41% 9934 718  5%
c w  2.96  0 45 30 5771  4 130292 10818 2.0 15 7 2 3 41% 9934 718  5%
c x  2.96  0 45 30 5771  4 130292 10815 2.0 15 7 2 3 41% 9878 718  5%
c t  2.96  0 45 30 5771  4 130292 10814 2.0 15 7 2 3 41% 9856 718  5%
c i  3.03  0 43 30 6098  4 133498 13256 2.0 15 7 2 3 41% 9856 717  5%
c #  3.09  0 41 30 6358  3 136031 15353 2.0 15 7 2 3 41% 9856 717  5%
c -  3.18  0 40 31 6749  3 139317 11674 2.0 15 8 2 3 41% 9789 717  5%
c p  3.18  0 40 31 6749  3 139317 11683 2.0 15 8 2 3 41% 9789 717  5%
c u  3.20  0 40 31 6749  3 139317 11602 2.0 15 8 2 3 41% 9789 717  5%
c v  3.20  0 40 31 6749  3 139317 11573 2.0 15 8 2 3 41% 9789 717  5%
c w  3.20  0 40 31 6749  3 139317 11573 2.0 15 8 2 3 41% 9789 717  5%
c x  3.21  0 40 31 6749  3 139317 11569 2.0 15 8 2 3 41% 9649 717  5%
c t  3.21  0 40 31 6749  3 139317 11569 2.0 15 8 2 3 41% 9629 717  5%
c }  3.29  0 38 31 7106  3 142975 14396 2.0 15 8 2 3 40% 9629 717  5%
c [  3.29  0 14 31 7106  1 142975 14396 1.9 18 9 3 5 47% 9629 717  5%
c i  3.35  0 14 31 7106  1 145320 16157 1.9 18 9 3 5 47% 9629 712  5%
c -  3.44  0 14 32 7107  1 148648 10997 1.9 18 9 3 5 47% 9429 712  5%
c 2  3.44  0 14 32 7107  1 148648 10993 1.9 18 9 3 5 47% 9426 712  5%
c d  3.44  0 14 32 7107  1 148648 10950 1.9 18 9 3 5 47% 9419 709  5%
c 
c  seconds  reductions   conflicts         size  tier2     variables
c         MB     restarts       redundant     glue  trail      remaining
c          level       rate          size/glue tier1 irredundant
c 
c p  3.44  0 14 32 7107  1 148648 10999 1.9 18 9 3 5 47% 9419 709  5%
c u  3.45  0 14 32 7107  1 148648 10900 1.9 18 9 3 5 47% 9425 709  5%
c v  3.45  0 14 32 7107  1 148648 10871 1.9 18 9 3 5 47% 9425 709  5%
c x  3.45  0 14 32 7107  1 148648 10869 1.9 18 9 3 5 47% 9284 709  5%
c t  3.45  0 14 32 7107  1 148648 10868 1.9 18 9 3 5 47% 9202 709  5%
c f  3.45  0 14 32 7107  1 148648 10861 1.9 18 9 3 5 47% 9198 710  5%
c B  3.56  0 14 32 7107  1 153034 14063 2.0 18 9 3 5 46% 9198 710  5%
c -  3.69  0 13 33 7107  1 158286 11901 1.9 18 9 3 5 45% 9198 710  5%
c p  3.69  0 13 33 7107  1 158286 11933 1.9 18 9 3 5 45% 9198 710  5%
c u  3.69  0 13 33 7107  1 158286 11846 1.9 18 9 3 5 45% 9198 710  5%
c v  3.70  0 13 33 7107  1 158286 11832 1.9 18 9 3 5 45% 9198 710  5%
c w  3.70  0 13 33 7107  1 158286 11832 1.9 18 9 3 5 45% 9198 710  5%
c x  3.70  0 13 33 7107  1 158286 11831 1.9 18 9 3 5 45% 9099 710  5%
c t  3.70  0 13 33 7107  1 158286 11830 1.9 18 9 3 5 45% 9007 710  5%
c t  3.73  0 13 33 7107  1 159591 12665 1.9 17 9 3 5 45% 9002 710  5%
c e  3.74  0 13 33 7107  1 159591 12411 1.9 17 9 3 5 45% 8862 622  4%
c ^  3.74  0 13 33 7107  1 159591 12411 1.9 17 9 3 5 45% 8862 622  4%
c i  3.78  0 13 33 7107  1 161445 13475 1.9 17 9 3 5 43% 8862 620  4%
c ]  3.79  0 13 33 7107  1 161489 13506 1.9 17 9 3 5 43% 8862 620  4%
c {  3.79  0 38 33 7107  3 161489 13506 2.0 15 8 2 3 51% 8862 620  4%
c 
c  seconds  reductions   conflicts         size  tier2     variables
c         MB     restarts       redundant     glue  trail      remaining
c          level       rate          size/glue tier1 irredundant
c 
c i  3.89  0 35 33 7198  3 166350 16833 1.9 15 7 2 3 50% 8862 618  4%
c -  3.93  0 35 34 7240  3 168232 10877 1.9 14 7 2 3 50% 8700 618  4%
c 2  3.93  0 35 34 7240  3 168232 10877 1.9 14 7 2 3 50% 8699 618  4%
c p  3.93  0 35 34 7240  3 168232 10888 1.9 14 7 2 3 50% 8699 617  4%
c u  3.94  0 35 34 7240  3 168232 10806 1.9 14 7 2 3 50% 8699 617  4%
c v  3.94  0 35 34 7240  3 168232 10793 1.9 14 7 2 3 50% 8699 617  4%
c w  3.94  0 35 34 7240  3 168232 10793 1.9 14 7 2 3 50% 8699 617  4%
c x  3.94  0 35 34 7240  3 168232 10793 1.9 14 7 2 3 50% 8486 617  4%
c t  3.94  0 35 34 7240  3 168232 10793 1.9 14 7 2 3 50% 8425 617  4%
c i  3.97  0 34 34 7240  3 169495 11693 1.9 14 7 2 3 50% 8425 600  4%
c i  3.99  0 34 34 7240  3 170473 12341 1.9 14 7 2 3 50% 8425 599  4%
c B  4.00  0 33 34 7276  3 171037 12790 1.9 14 7 2 3 50% 8425 599  4%
c i  4.02  0 33 34 7281  3 172160 13452 1.9 14 7 2 3 49% 8425 583  4%
c i  4.04  0 33 34 7288  3 172889 13914 1.9 14 7 2 3 49% 8425 579  4%
c i  4.05  0 32 34 7288  3 173541 14242 1.9 14 7 2 3 49% 8425 567  4%
c i  4.05  0 32 34 7288  3 173746 14381 1.9 14 7 2 3 49% 8425 564  4%
c i  4.06  0 32 34 7288  3 173804 14412 1.9 14 7 2 3 49% 8425 563  4%
c i  4.06  0 32 34 7288  3 173950 14519 1.9 14 7 2 3 49% 8425 413  3%
c i  4.06  0 32 34 7288  3 173951 2675 1.9 14 7 2 3 26% 3554 405  3%
c }  4.06  0 32 34 7288  3 173954 2676 1.9 14 7 2 3 30% 3554 382  3%
c 
c  seconds  reductions   conflicts        size  tier2     variables
c         MB     restarts      redundant     glue  trail      remaining
c          level       rate         size/glue tier1 irredundant
c 
c 0  4.06  0 32 34 7288  3 173954 2676 1.9 14 7 2 3 30% 3554 382  3%
c 
c --- [ closing proof ] ------------------------------------------------------
c 
c DRAT proof file 'scratch/atail-force/unique4-aligned-p5-terminal/core-audit/aligned_p5_compact.drat' closed
c DRAT 199528 added clauses 47.48%
c DRAT 220731 deleted clauses 52.52%
c DRAT 10934290 bytes (10.43 MB)
c 
c --- [ result ] -------------------------------------------------------------
c 
s UNSATISFIABLE
c 
c --- [ run-time profiling ] -------------------------------------------------
c 
c process time taken by individual solving procedures
c (percentage relative to process time for solving)
c 
c         3.70   91.14% search
c         1.87   46.09% unstable
c         1.73   42.67% stable
c         0.36    8.82% simplify
c         0.13    3.09% vivify
c         0.10    2.35% walk
c         0.09    2.21% factor
c         0.06    1.46% sweep
c         0.04    1.09% preprocess
c         0.02    0.46% subsume
c         0.02    0.44% elim
c         0.01    0.29% congruence
c         0.01    0.22% probe
c         0.01    0.13% parse
c         0.01    0.13% ternary
c         0.00    0.10% backbone
c         0.00    0.06% fastelim
c         0.00    0.02% lucky
c   =================================
c         4.06   99.86% solve
c 
c last line shows process time for solving
c (percentage relative to total process time)
c 
c --- [ statistics ] ---------------------------------------------------------
c 
c chronological:             36434        20.94 %  of conflicts
c conflicts:                173954     42898.50    per second
c backbone:                 149566       934.85 %  of vars
c decisions:                415998    102588.55    per second
c eliminated:                  721         4.51 %  of all variables
c factored:                    807       194.93 %  of variables
c fixed:                       347         2.17 %  of all variables
c learned:                  169257        97.30 %  per conflict
c learned_lits:            4241141       100.00 %  learned literals
c minimized:                     0         0.00 %  learned literals
c shrunken:                1074720        25.34 %  learned literals
c minishrunken:             487979        11.51 %  learned literals
c otfs:                       1428         0.82 %  of conflict
c propagations:           18084364         4.46 M  per second
c reduced:                   98802        56.80 %  per conflict
c rephased:                     18      9664.11    interval
c restarts:                   7288        23.87    interval
c stabilizing:                   9        46.38 %  of conflicts
c substituted:                  39         0.24 %  of all variables
c subsumed:                  41254        19.21 %  of all clauses
c strengthened:               4998         2.33 %  of all clauses
c ticks:                 358647117        20.54    propagation
c vivified:                   5002         2.33 %  of all clauses
c walked:                        4     43488.50    interval
c weakened:                   3743         2.56    average size
c congruence:                    8     21744.25    interval
c 
c seconds are measured in process time for solving
c 
c --- [ glue usage ] ---------------------------------------------------------
c 
c focused glue 2 used 182111 clauses 27.19% accumulated 70.54% tier1
c focused glue 3 used 78294 clauses 11.69% accumulated 82.23% tier2
c 
c stable glue 3 used 72722 clauses 10.77% accumulated 76.82% tier1
c stable glue 4 used 37339 clauses 5.532% accumulated 82.35%
c stable glue 5 used 24222 clauses 3.588% accumulated 85.94% tier2
c 
c 
c --- [ resources ] ----------------------------------------------------------
c 
c total process time since initialization:         4.06    seconds
c total real time since initialization:            4.06    seconds
c maximum resident set size of process:        34304.00    MB
c 
c --- [ shutting down ] ------------------------------------------------------
c 
c exit 20
